#===============================================================================
# OpenMECP Input Template
#===============================================================================
# Generated from geometry: coor-phenylcation_mecp.xyz
#===============================================================================

#===== Basic Settings (required) ==============================================
nprocs = 10              # processors for QM program
mem = 40GB              # memory (use maxcore value for ORCA)
method = n b3lyp/6-31g** # QM method: n method/basis keywords ...
td_state_a =             # TD-DFT keywords for state A (Gaussian). Short: td_a
td_state_b =             # TD-DFT keywords for state B (Gaussian). Short: td_b
mp2 = false              # true for MP2 or double-hybrid in Gaussian
charge = 1               # molecular charge (same for both states unless charge2)
mult_state_a = 3         # multiplicity of state A. Short: mult_a
mult_state_b = 1         # multiplicity of state B. Short: mult_b
mode = normal            # normal | read | noread | stable | inter_read

#===== Convergence Thresholds =================================================
dE_thresh = 0.000050     # energy difference convergence (hartree)
rms_thresh = 0.0025      # RMS displacement convergence (angstrom)
max_dis_thresh = 0.004   # max displacement convergence (angstrom)
max_g_thresh = 0.001323  # max gradient convergence (hartree/angstrom)
rms_g_thresh = 0.000945  # RMS gradient convergence (hartree/angstrom)

#===== Optimization Control ===================================================
max_steps = 100          # maximum optimization steps
max_step_size = 0.1      # maximum step size (angstrom)
max_history = 4          # DIIS history length
reduced_factor = 0.5     # step reduction factor near convergence
bfgs_rho = 15            # BFGS step amplification factor (rho)
print_level = 1          # 0=quiet, 1=normal, 2=verbose (DIIS debug)

#===== Optimizer Selection ====================================================
switch_step = 3          # switch from BFGS to DIIS after this many steps
use_direct_hessian = true # true: direct Hessian + PSB (recommended)
                         # false: inverse Hessian + BFGS (Fortran-style)
use_gediis = true       # enable GEDIIS (energy-informed DIIS)
use_hybrid_gediis = true # blend GDIIS+GEDIIS (only if use_gediis = true)
smart_history = false    # experimental: remove worst DIIS point instead of oldest

#===== Advanced Optimizer Settings ============================================
#use_robust_diis = false      # Strict DIIS: reject bad extrapolations via
                              # cosine & coefficient validation. Prevents
                              # wild steps when history is ill-conditioned.
#gediis_variant = auto        # auto | rfo | energy | simultaneous
#gdiis_cosine_check = standard # cosine threshold: none | zero | standard
                              # | variable | strict
#gdiis_coeff_check = regular  # coefficient bounds: none | regular
                              # | force_recent | combined
#n_neg = 0                    # 0 = minimum search, 1 = transition state
#gediis_sim_switch = 0.0025   # DIIS variant switching RMS threshold
#use_advanced_hessian_update = false  # Try Bofill/Powell updates when
                              # PSB curvature is poor (near saddle points).
#hessian_update_method = bfgs # bfgs | bofill | powell | bfgs_powell_mix

#===== Program Settings =======================================================
program = gaussian       # gaussian | orca | xtb | bagel
gau_comm = g16           # Gaussian command
orca_comm = orca          # ORCA command
xtb_comm = xtb            # XTB command
bagel_comm = bagel        # BAGEL command
bagel_model = model.inp   # BAGEL model file
#custom_interface_file = custom_qm.json  # custom QM program config

#===== Advanced Options =======================================================
#restart = false              # restart from checkpoint file
#print_checkpoint = true      # save checkpoint JSON at each step
#fix_de = 0.0                 # eV: fix energy difference (FixDE mode)
#state_a = 0                  # state index for BAGEL multireference
#state_b = 1
#basis =                      # basis set (for programs separating method/basis)
#solvent =                    # solvent model
#dispersion =                 # dispersion correction
#charge2 =                    # separate charge for state B (default: same as charge)
#fixedatoms = 1,3,5-7         # comma/hyphen ranges of fixed atoms (1-based)

#===== ONIOM (QM/MM) =========================================================
#isoniom = false
#chargeandmultforoniom1 = 0 1
#chargeandmultforoniom2 = 0 1

#===== Coordinate Driving =====================================================
#drive_type = bond            # bond | angle | dihedral
#drive_atoms = 1,2            # atom indices (1-based)
#drive_start = 1.0
#drive_end = 2.0
#drive_steps = 10

#===============================================================================
# Geometry section: Cartesian coordinates in Angstrom
#===============================================================================
*geom
@coor-phenylcation_gediis.xyz
*

#===============================================================================
# Tail sections: extra keywords appended to QM input files
#===============================================================================
*tail1
# Extra keywords for state A (e.g., SCF convergence, basis sets)
# For Gaussian: TD(NStates=5,Root=1)
# For ORCA: %tddft nroots 5 end
*

*tail2
# Extra keywords for state B (e.g., SCF convergence, basis sets)
*

#===============================================================================
# Constraints section
# Syntax: R atom1 atom2 target      (bond constraint, Angstrom)
#         A a1 a2 a3 target         (angle constraint, degrees)
#         S R a1 a2 start num step  (1D scan)
#         S A a1 a2 a3 start num step (angle scan)
#         S R a1 a2 start1 n1 s1  R a3 a4 start2 n2 s2 (2D scan)
# Atom indices are 1-based.
#===============================================================================
*constr
#R 1 2 1.0              # fix bond 1-2 at 1.0 Angstrom
#A 1 2 3 100.0          # fix angle 1-2-3 at 100 degrees
#S R 1 2 1.0 10 0.1     # scan bond 1-2 from 1.0, 10 steps of 0.1
*

